23
2 14 48 
3 58 8 20 
3 31 25 30 
3 19 23 16 
2 17 12 
2 4 60 
3 59 30 35 
2 38 6 
3 14 24 25 
2 11 26 
3 27 37 53 
3 55 47 20 
3 36 7 18 
3 10 50 52 
2 13 44 
3 33 16 19 
2 39 3 
3 56 43 42 
2 49 57 
3 7 39 9 
3 37 12 53 
3 2 27 4 
2 54 46 
